\ENCODING=ISO-8859-1
\Problem name: ilog.cplex

Minimize
 obj1: 99246 x1 + 109015 x2 + 90018 x3 + 92512 x4 + 93010 x5 + 100784 x6
       + 100585 x7 + 106209 x8 + 95402 x9 + 99247 x10 + 99288 x11 + 97715 x12
       + 102058 x13 + 102120 x14 + 100718 x15 + 106297 x16 + 93147 x17
       + 90270 x18 + 91622 x19 + 95063 x20 + 107377 x21 + 90961 x22
       + 109920 x23 + 103355 x24 + 96666 x25 + 98196 x26 + 107328 x27
       + 104671 x28 + 91651 x29 + 91211 x30 + 101921 x31 + 95228 x32
       + 96943 x33 + 102944 x34 + 91056 x35 + 96914 x36 + 99483 x37
       + 101776 x38 + 104799 x39 + 107570 x40 + 93314 x41 + 101854 x42
       + 95312 x43 + 91461 x44 + 99786 x45 + 109988 x46 + 98624 x47 + 93243 x48
       + 93434 x49 + 90445 x50 + 91787 x51 + 99860 x52 + 90694 x53 + 102834 x54
       + 100638 x55 + 106557 x56 + 101124 x57 + 102886 x58 + 91193 x59
       + 105524 x60 + 108709 x61 + 106536 x62 + 109764 x63 + 97331 x64
       + 99938 x65 + 90724 x66 + 106272 x67 + 98589 x68 + 105713 x69
       + 98101 x70 + 95729 x71 + 106073 x72 + 98919 x73 + 95791 x74 + 95990 x75
       + 106162 x76 + 105188 x77 + 100707 x78 + 104587 x79 + 104976 x80
       + 107743 x81 + 92076 x82 + 106930 x83 + 109597 x84 + 103303 x85
       + 109561 x86 + 104429 x87 + 94220 x88 + 108996 x89 + 102455 x90
       + 91393 x91 + 97891 x92 + 98215 x93 + 94191 x94 + 90364 x95 + 94585 x96
       + 91942 x97 + 100811 x98 + 96969 x99 + 96039 x100 + 91342 x101
       + 92039 x102 + 107439 x103 + 93158 x104 + 107263 x105 + 109279 x106
       + 104579 x107 + 92684 x108 + 102775 x109 + 96094 x110 + 101331 x111
       + 102482 x112 + 95992 x113 + 93638 x114 + 104946 x115 + 100939 x116
       + 92177 x117 + 106030 x118 + 109368 x119 + 93845 x120 + 95569 x121
       + 101491 x122 + 97288 x123 + 109487 x124 + 90413 x125 + 98069 x126
       + 91345 x127 + 109335 x128 + 94756 x129 + 100773 x130 + 107562 x131
       + 109680 x132 + 90916 x133 + 95809 x134 + 101082 x135 + 106652 x136
       + 99625 x137 + 103509 x138 + 105146 x139 + 105521 x140 + 99580 x141
       + 104184 x142 + 98543 x143 + 96512 x144 + 109760 x145 + 102700 x146
       + 108586 x147 + 98352 x148 + 103015 x149 + 94540 x150 + 90401 x151
       + 106240 x152 + 97893 x153 + 104091 x154 + 92097 x155 + 91695 x156
       + 99762 x157 + 104521 x158 + 99753 x159 + 93183 x160 + 91979 x161
       + 97827 x162 + 96200 x163 + 108481 x164 + 93198 x165 + 93523 x166
       + 103218 x167 + 92380 x168 + 97862 x169 + 94905 x170 + 108019 x171
       + 96673 x172 + 103508 x173 + 102961 x174 + 101807 x175 + 103273 x176
       + 100725 x177 + 99716 x178 + 100708 x179 + 95845 x180 + 90561 x181
       + 108537 x182 + 95026 x183 + 106452 x184 + 102319 x185 + 95412 x186
       + 109824 x187 + 92589 x188 + 99259 x189 + 105699 x190 + 100721 x191
       + 102494 x192 + 95417 x193 + 105094 x194 + 101549 x195 + 93435 x196
       + 109044 x197 + 90082 x198 + 92633 x199 + 94645 x200 + 92427 x201
       + 106462 x202 + 107802 x203 + 106095 x204 + 97969 x205 + 91676 x206
       + 92790 x207 + 107732 x208 + 104833 x209 + 99734 x210 + 100605 x211
       + 95271 x212 + 90625 x213 + 96041 x214 + 107411 x215 + 97428 x216
       + 93421 x217 + 103470 x218 + 101102 x219 + 103831 x220 + 90821 x221
       + 100765 x222 + 93968 x223 + 102926 x224 + 104811 x225 + 99671 x226
       + 100724 x227 + 94765 x228 + 103863 x229 + 98141 x230 + 103660 x231
       + 104911 x232 + 97003 x233 + 103579 x234 + 97791 x235 + 102527 x236
       + 98522 x237 + 102250 x238 + 90605 x239 + 98271 x240 + 105741 x241
       + 103747 x242 + 103671 x243 + 104102 x244 + 94016 x245 + 94750 x246
       + 103851 x247 + 95342 x248 + 98189 x249 + 100221 x250 + 100005 x251
       + 105268 x252 + 109847 x253 + 95942 x254 + 99712 x255 + 104098 x256
       + 100074 x257 + 91828 x258 + 95433 x259 + 94395 x260 + 93832 x261
       + 94667 x262 + 95928 x263 + 99387 x264 + 96474 x265 + 107112 x266
       + 107491 x267 + 100352 x268 + 90642 x269 + 105077 x270 + 94129 x271
       + 91448 x272 + 94975 x273 + 105802 x274 + 104285 x275 + 108348 x276
       + 104801 x277 + 109696 x278 + 95775 x279 + 105668 x280 + 99398 x281
       + 90490 x282 + 100332 x283 + 107403 x284 + 100399 x285 + 100254 x286
       + 104454 x287 + 94457 x288 + 101613 x289 + 108535 x290 + 104247 x291
       + 103838 x292 + 101730 x293 + 108175 x294 + 98499 x295 + 95194 x296
       + 98362 x297 + 94264 x298 + 96462 x299 + 166675 x300 + 189132 x301
       + 196983 x302 + 185828 x303 + 192422 x304 + 197861 x305 + 196072 x306
       + 218324 x307 + 182363 x308 + 196525 x309 + 212397 x310 + 190944 x311
       + 192534 x312 + 191903 x313 + 180707 x314 + 203033 x315 + 192979 x316
       + 180438 x317 + 213417 x318 + 200864 x319 + 197467 x320 + 202168 x321
       + 184185 x322 + 219708 x323 + 214397 x324 + 181635 x325 + 215586 x326
       + 206940 x327 + 202044 x328 + 196967 x329 + 199963 x330 + 200240 x331
       + 187381 x332 + 219937 x333 + 191293 x334 + 193373 x335 + 198386 x336
       + 215165 x337 + 188479 x338 + 204312 x339 + 184144 x340 + 215716 x341
       + 206745 x342 + 186410 x343 + 215243 x344 + 205208 x345 + 203847 x346
       + 213061 x347 + 208852 x348 + 213145 x349 + 191631 x350 + 219785 x351
       + 208545 x352 + 210528 x353 + 200968 x354 + 184859 x355 + 188351 x356
       + 216930 x357 + 199423 x358 + 210640 x359 + 181617 x360
Subject To
 c1:   x8 + x9 - x21 + x24 - x25 + x26 - x32 + x33 - x48 + x49 + x54  = 0
 c2:   x68 + x69 - x81 + x84 - x85 + x86 - x92 + x93 - x108 + x109 + x114  = 1
 c3:   x128 + x129 - x141 + x144 - x145 + x146 - x152 + x153 - x168 + x169
       + x174  = 0
 c4:   x188 + x189 - x201 + x204 - x205 + x206 - x212 + x213 - x228 + x229
       + x234  = 0
 c5:   x248 + x249 - x261 + x264 - x265 + x266 - x272 + x273 - x288 + x289
       + x294  = 0
 c6:   - x1 - x42 - x50 - x52 - x54 - x56 + x60  = 0
 c7:   - x61 - x102 - x110 - x112 - x114 - x116 + x120  = 0
 c8:   - x121 - x162 - x170 - x172 - x174 - x176 + x180  = 0
 c9:   - x181 - x222 - x230 - x232 - x234 - x236 + x240  = 0
 c10:  - x241 - x282 - x290 - x292 - x294 - x296 + x300  = 0
 c11:  x1 - x4 + x16 + x18 - x23 + x44  = 0
 c12:  x61 - x64 + x76 + x78 - x83 + x104  = 0
 c13:  x121 - x124 + x136 + x138 - x143 + x164  = 0
 c14:  x181 - x184 + x196 + x198 - x203 + x224  = 0
 c15:  x241 - x244 + x256 + x258 - x263 + x284  = 0
 c16:  - x9 + x13 - x18 + x32 - x34 + x36 - x37 + x40 - x46 + x57  = 0
 c17:  - x69 + x73 - x78 + x92 - x94 + x96 - x97 + x100 - x106 + x117  = 0
 c18:  - x129 + x133 - x138 + x152 - x154 + x156 - x157 + x160 - x166 + x177
        = 0
 c19:  - x189 + x193 - x198 + x212 - x214 + x216 - x217 + x220 - x226 + x237
        = 1
 c20:  - x249 + x253 - x258 + x272 - x274 + x276 - x277 + x280 - x286 + x297
        = 0
 c21:  x2 + x7 - x14 + x15 - x17 + x20 + x59  = 0
 c22:  x62 + x67 - x74 + x75 - x77 + x80 + x119  = 0
 c23:  x122 + x127 - x134 + x135 - x137 + x140 + x179  = 0
 c24:  x182 + x187 - x194 + x195 - x197 + x200 + x239  = 0
 c25:  x242 + x247 - x254 + x255 - x257 + x260 + x299  = 0
 c26:  - x16 - x24 + x30 + x37 - x39 - x41 + x52  = -1
 c27:  - x76 - x84 + x90 + x97 - x99 - x101 + x112  = 0
 c28:  - x136 - x144 + x150 + x157 - x159 - x161 + x172  = 0
 c29:  - x196 - x204 + x210 + x217 - x219 - x221 + x232  = -1
 c30:  - x256 - x264 + x270 + x277 - x279 - x281 + x292  = 0
 c31:  x11 + x14 - x28 + x31 - x33 + x39 - x47 + x56  = 0
 c32:  x71 + x74 - x88 + x91 - x93 + x99 - x107 + x116  = 0
 c33:  x131 + x134 - x148 + x151 - x153 + x159 - x167 + x176  = 0
 c34:  x191 + x194 - x208 + x211 - x213 + x219 - x227 + x236  = 0
 c35:  x251 + x254 - x268 + x271 - x273 + x279 - x287 + x296  = 1
 c36:  - x5 + x10 + x22 + x27 - x44 + x46  = 0
 c37:  - x65 + x70 + x82 + x87 - x104 + x106  = 0
 c38:  - x125 + x130 + x142 + x147 - x164 + x166  = 0
 c39:  - x185 + x190 + x202 + x207 - x224 + x226  = 0
 c40:  - x245 + x250 + x262 + x267 - x284 + x286  = 0
 c41:  x5 + x19 - x22 + x41 + x48  = 1
 c42:  x65 + x79 - x82 + x101 + x108  = -1
 c43:  x125 + x139 - x142 + x161 + x168  = 0
 c44:  x185 + x199 - x202 + x221 + x228  = 0
 c45:  x245 + x259 - x262 + x281 + x288  = 0
 c46:  x4 + x12 - x13 + x17 - x19 - x20 + x29 + x38 - x43 - x49 + x55  = 0
 c47:  x64 + x72 - x73 + x77 - x79 - x80 + x89 + x98 - x103 - x109 + x115  = 0
 c48:  x124 + x132 - x133 + x137 - x139 - x140 + x149 + x158 - x163 - x169
       + x175  = 0
 c49:  x184 + x192 - x193 + x197 - x199 - x200 + x209 + x218 - x223 - x229
       + x235  = 0
 c50:  x244 + x252 - x253 + x257 - x259 - x260 + x269 + x278 - x283 - x289
       + x295  = 0
 c51:  x21 - x26 - x27 + x28 - x35 - x40 + x42 + x43 - x45 - x55 - x58  = 0
 c52:  x81 - x86 - x87 + x88 - x95 - x100 + x102 + x103 - x105 - x115 - x118
        = 0
 c53:  x141 - x146 - x147 + x148 - x155 - x160 + x162 + x163 - x165 - x175
       - x178  = 0
 c54:  x201 - x206 - x207 + x208 - x215 - x220 + x222 + x223 - x225 - x235
       - x238  = 0
 c55:  x261 - x266 - x267 + x268 - x275 - x280 + x282 + x283 - x285 - x295
       - x298  = -1
 c56:  - x2 - x6 + x25 - x30 + x45 + x47 - x51 - x53 - x60  = 0
 c57:  - x62 - x66 + x85 - x90 + x105 + x107 - x111 - x113 - x120  = 0
 c58:  - x122 - x126 + x145 - x150 + x165 + x167 - x171 - x173 - x180  = 0
 c59:  - x182 - x186 + x205 - x210 + x225 + x227 - x231 - x233 - x240  = 0
 c60:  - x242 - x246 + x265 - x270 + x285 + x287 - x291 - x293 - x300  = 0
 c61:  - x3 + x6 - x7 - x10 - x11 + x34 - x36 - x38 + x50 + x58  = 0
 c62:  - x63 + x66 - x67 - x70 - x71 + x94 - x96 - x98 + x110 + x118  = 0
 c63:  - x123 + x126 - x127 - x130 - x131 + x154 - x156 - x158 + x170 + x178
        = 0
 c64:  - x183 + x186 - x187 - x190 - x191 + x214 - x216 - x218 + x230 + x238
        = 0
 c65:  - x243 + x246 - x247 - x250 - x251 + x274 - x276 - x278 + x290 + x298
        = 0
 c66:  - x8 - x15 - x29 - x31 + x35 + x53  = 0
 c67:  - x68 - x75 - x89 - x91 + x95 + x113  = 0
 c68:  - x128 - x135 - x149 - x151 + x155 + x173  = -1
 c69:  - x188 - x195 - x209 - x211 + x215 + x233  = 0
 c70:  - x248 - x255 - x269 - x271 + x275 + x293  = 0
 c71:  x3 - x12 + x23 + x51 - x57 - x59  = 0
 c72:  x63 - x72 + x83 + x111 - x117 - x119  = 0
 c73:  x123 - x132 + x143 + x171 - x177 - x179  = 1
 c74:  x183 - x192 + x203 + x231 - x237 - x239  = 0
 c75:  x243 - x252 + x263 + x291 - x297 - x299  = 0
 c76:  4 x1 + 4 x61 + 4 x121 + 4 x181 + 4 x241 - 11 x301 <= 0
 c77:  4 x2 + 4 x62 + 4 x122 + 4 x182 + 4 x242 - 10 x302 <= 0
 c78:  4 x3 + 4 x63 + 4 x123 + 4 x183 + 4 x243 - 11 x303 <= 0
 c79:  4 x4 + 4 x64 + 4 x124 + 4 x184 + 4 x244 - 11 x304 <= 0
 c80:  4 x5 + 4 x65 + 4 x125 + 4 x185 + 4 x245 - 11 x305 <= 0
 c81:  4 x6 + 4 x66 + 4 x126 + 4 x186 + 4 x246 - 10 x306 <= 0
 c82:  4 x7 + 4 x67 + 4 x127 + 4 x187 + 4 x247 - 10 x307 <= 0
 c83:  4 x8 + 4 x68 + 4 x128 + 4 x188 + 4 x248 - 10 x308 <= 0
 c84:  4 x9 + 4 x69 + 4 x129 + 4 x189 + 4 x249 - 10 x309 <= 0
 c85:  4 x10 + 4 x70 + 4 x130 + 4 x190 + 4 x250 - 10 x310 <= 0
 c86:  4 x11 + 4 x71 + 4 x131 + 4 x191 + 4 x251 - 10 x311 <= 0
 c87:  4 x12 + 4 x72 + 4 x132 + 4 x192 + 4 x252 - 10 x312 <= 0
 c88:  4 x13 + 4 x73 + 4 x133 + 4 x193 + 4 x253 - 9 x313 <= 0
 c89:  4 x14 + 4 x74 + 4 x134 + 4 x194 + 4 x254 - 11 x314 <= 0
 c90:  4 x15 + 4 x75 + 4 x135 + 4 x195 + 4 x255 - 10 x315 <= 0
 c91:  4 x16 + 4 x76 + 4 x136 + 4 x196 + 4 x256 - 10 x316 <= 0
 c92:  4 x17 + 4 x77 + 4 x137 + 4 x197 + 4 x257 - 10 x317 <= 0
 c93:  4 x18 + 4 x78 + 4 x138 + 4 x198 + 4 x258 - 11 x318 <= 0
 c94:  4 x19 + 4 x79 + 4 x139 + 4 x199 + 4 x259 - 9 x319 <= 0
 c95:  4 x20 + 4 x80 + 4 x140 + 4 x200 + 4 x260 - 10 x320 <= 0
 c96:  4 x21 + 4 x81 + 4 x141 + 4 x201 + 4 x261 - 10 x321 <= 0
 c97:  4 x22 + 4 x82 + 4 x142 + 4 x202 + 4 x262 - 11 x322 <= 0
 c98:  4 x23 + 4 x83 + 4 x143 + 4 x203 + 4 x263 - 10 x323 <= 0
 c99:  4 x24 + 4 x84 + 4 x144 + 4 x204 + 4 x264 - 9 x324 <= 0
 c100: 4 x25 + 4 x85 + 4 x145 + 4 x205 + 4 x265 - 11 x325 <= 0
 c101: 4 x26 + 4 x86 + 4 x146 + 4 x206 + 4 x266 - 11 x326 <= 0
 c102: 4 x27 + 4 x87 + 4 x147 + 4 x207 + 4 x267 - 10 x327 <= 0
 c103: 4 x28 + 4 x88 + 4 x148 + 4 x208 + 4 x268 - 10 x328 <= 0
 c104: 4 x29 + 4 x89 + 4 x149 + 4 x209 + 4 x269 - 9 x329 <= 0
 c105: 4 x30 + 4 x90 + 4 x150 + 4 x210 + 4 x270 - 9 x330 <= 0
 c106: 4 x31 + 4 x91 + 4 x151 + 4 x211 + 4 x271 - 11 x331 <= 0
 c107: 4 x32 + 4 x92 + 4 x152 + 4 x212 + 4 x272 - 10 x332 <= 0
 c108: 4 x33 + 4 x93 + 4 x153 + 4 x213 + 4 x273 - 11 x333 <= 0
 c109: 4 x34 + 4 x94 + 4 x154 + 4 x214 + 4 x274 - 10 x334 <= 0
 c110: 4 x35 + 4 x95 + 4 x155 + 4 x215 + 4 x275 - 9 x335 <= 0
 c111: 4 x36 + 4 x96 + 4 x156 + 4 x216 + 4 x276 - 10 x336 <= 0
 c112: 4 x37 + 4 x97 + 4 x157 + 4 x217 + 4 x277 - 9 x337 <= 0
 c113: 4 x38 + 4 x98 + 4 x158 + 4 x218 + 4 x278 - 10 x338 <= 0
 c114: 4 x39 + 4 x99 + 4 x159 + 4 x219 + 4 x279 - 10 x339 <= 0
 c115: 4 x40 + 4 x100 + 4 x160 + 4 x220 + 4 x280 - 11 x340 <= 0
 c116: 4 x41 + 4 x101 + 4 x161 + 4 x221 + 4 x281 - 10 x341 <= 0
 c117: 4 x42 + 4 x102 + 4 x162 + 4 x222 + 4 x282 - 10 x342 <= 0
 c118: 4 x43 + 4 x103 + 4 x163 + 4 x223 + 4 x283 - 9 x343 <= 0
 c119: 4 x44 + 4 x104 + 4 x164 + 4 x224 + 4 x284 - 11 x344 <= 0
 c120: 4 x45 + 4 x105 + 4 x165 + 4 x225 + 4 x285 - 9 x345 <= 0
 c121: 4 x46 + 4 x106 + 4 x166 + 4 x226 + 4 x286 - 10 x346 <= 0
 c122: 4 x47 + 4 x107 + 4 x167 + 4 x227 + 4 x287 - 10 x347 <= 0
 c123: 4 x48 + 4 x108 + 4 x168 + 4 x228 + 4 x288 - 11 x348 <= 0
 c124: 4 x49 + 4 x109 + 4 x169 + 4 x229 + 4 x289 - 10 x349 <= 0
 c125: 4 x50 + 4 x110 + 4 x170 + 4 x230 + 4 x290 - 10 x350 <= 0
 c126: 4 x51 + 4 x111 + 4 x171 + 4 x231 + 4 x291 - 10 x351 <= 0
 c127: 4 x52 + 4 x112 + 4 x172 + 4 x232 + 4 x292 - 10 x352 <= 0
 c128: 4 x53 + 4 x113 + 4 x173 + 4 x233 + 4 x293 - 11 x353 <= 0
 c129: 4 x54 + 4 x114 + 4 x174 + 4 x234 + 4 x294 - 11 x354 <= 0
 c130: 4 x55 + 4 x115 + 4 x175 + 4 x235 + 4 x295 - 10 x355 <= 0
 c131: 4 x56 + 4 x116 + 4 x176 + 4 x236 + 4 x296 - 9 x356 <= 0
 c132: 4 x57 + 4 x117 + 4 x177 + 4 x237 + 4 x297 - 9 x357 <= 0
 c133: 4 x58 + 4 x118 + 4 x178 + 4 x238 + 4 x298 - 9 x358 <= 0
 c134: 4 x59 + 4 x119 + 4 x179 + 4 x239 + 4 x299 - 9 x359 <= 0
 c135: 4 x60 + 4 x120 + 4 x180 + 4 x240 + 4 x300 - 7 x360 <= 0
Bounds
 0 <= x1 <= 1
 0 <= x2 <= 1
 0 <= x3 <= 1
 0 <= x4 <= 1
 0 <= x5 <= 1
 0 <= x6 <= 1
 0 <= x7 <= 1
 0 <= x8 <= 1
 0 <= x9 <= 1
 0 <= x10 <= 1
 0 <= x11 <= 1
 0 <= x12 <= 1
 0 <= x13 <= 1
 0 <= x14 <= 1
 0 <= x15 <= 1
 0 <= x16 <= 1
 0 <= x17 <= 1
 0 <= x18 <= 1
 0 <= x19 <= 1
 0 <= x20 <= 1
 0 <= x21 <= 1
 0 <= x22 <= 1
 0 <= x23 <= 1
 0 <= x24 <= 1
 0 <= x25 <= 1
 0 <= x26 <= 1
 0 <= x27 <= 1
 0 <= x28 <= 1
 0 <= x29 <= 1
 0 <= x30 <= 1
 0 <= x31 <= 1
 0 <= x32 <= 1
 0 <= x33 <= 1
 0 <= x34 <= 1
 0 <= x35 <= 1
 0 <= x36 <= 1
 0 <= x37 <= 1
 0 <= x38 <= 1
 0 <= x39 <= 1
 0 <= x40 <= 1
 0 <= x41 <= 1
 0 <= x42 <= 1
 0 <= x43 <= 1
 0 <= x44 <= 1
 0 <= x45 <= 1
 0 <= x46 <= 1
 0 <= x47 <= 1
 0 <= x48 <= 1
 0 <= x49 <= 1
 0 <= x50 <= 1
 0 <= x51 <= 1
 0 <= x52 <= 1
 0 <= x53 <= 1
 0 <= x54 <= 1
 0 <= x55 <= 1
 0 <= x56 <= 1
 0 <= x57 <= 1
 0 <= x58 <= 1
 0 <= x59 <= 1
 0 <= x60 <= 1
 0 <= x61 <= 1
 0 <= x62 <= 1
 0 <= x63 <= 1
 0 <= x64 <= 1
 0 <= x65 <= 1
 0 <= x66 <= 1
 0 <= x67 <= 1
 0 <= x68 <= 1
 0 <= x69 <= 1
 0 <= x70 <= 1
 0 <= x71 <= 1
 0 <= x72 <= 1
 0 <= x73 <= 1
 0 <= x74 <= 1
 0 <= x75 <= 1
 0 <= x76 <= 1
 0 <= x77 <= 1
 0 <= x78 <= 1
 0 <= x79 <= 1
 0 <= x80 <= 1
 0 <= x81 <= 1
 0 <= x82 <= 1
 0 <= x83 <= 1
 0 <= x84 <= 1
 0 <= x85 <= 1
 0 <= x86 <= 1
 0 <= x87 <= 1
 0 <= x88 <= 1
 0 <= x89 <= 1
 0 <= x90 <= 1
 0 <= x91 <= 1
 0 <= x92 <= 1
 0 <= x93 <= 1
 0 <= x94 <= 1
 0 <= x95 <= 1
 0 <= x96 <= 1
 0 <= x97 <= 1
 0 <= x98 <= 1
 0 <= x99 <= 1
 0 <= x100 <= 1
 0 <= x101 <= 1
 0 <= x102 <= 1
 0 <= x103 <= 1
 0 <= x104 <= 1
 0 <= x105 <= 1
 0 <= x106 <= 1
 0 <= x107 <= 1
 0 <= x108 <= 1
 0 <= x109 <= 1
 0 <= x110 <= 1
 0 <= x111 <= 1
 0 <= x112 <= 1
 0 <= x113 <= 1
 0 <= x114 <= 1
 0 <= x115 <= 1
 0 <= x116 <= 1
 0 <= x117 <= 1
 0 <= x118 <= 1
 0 <= x119 <= 1
 0 <= x120 <= 1
 0 <= x121 <= 1
 0 <= x122 <= 1
 0 <= x123 <= 1
 0 <= x124 <= 1
 0 <= x125 <= 1
 0 <= x126 <= 1
 0 <= x127 <= 1
 0 <= x128 <= 1
 0 <= x129 <= 1
 0 <= x130 <= 1
 0 <= x131 <= 1
 0 <= x132 <= 1
 0 <= x133 <= 1
 0 <= x134 <= 1
 0 <= x135 <= 1
 0 <= x136 <= 1
 0 <= x137 <= 1
 0 <= x138 <= 1
 0 <= x139 <= 1
 0 <= x140 <= 1
 0 <= x141 <= 1
 0 <= x142 <= 1
 0 <= x143 <= 1
 0 <= x144 <= 1
 0 <= x145 <= 1
 0 <= x146 <= 1
 0 <= x147 <= 1
 0 <= x148 <= 1
 0 <= x149 <= 1
 0 <= x150 <= 1
 0 <= x151 <= 1
 0 <= x152 <= 1
 0 <= x153 <= 1
 0 <= x154 <= 1
 0 <= x155 <= 1
 0 <= x156 <= 1
 0 <= x157 <= 1
 0 <= x158 <= 1
 0 <= x159 <= 1
 0 <= x160 <= 1
 0 <= x161 <= 1
 0 <= x162 <= 1
 0 <= x163 <= 1
 0 <= x164 <= 1
 0 <= x165 <= 1
 0 <= x166 <= 1
 0 <= x167 <= 1
 0 <= x168 <= 1
 0 <= x169 <= 1
 0 <= x170 <= 1
 0 <= x171 <= 1
 0 <= x172 <= 1
 0 <= x173 <= 1
 0 <= x174 <= 1
 0 <= x175 <= 1
 0 <= x176 <= 1
 0 <= x177 <= 1
 0 <= x178 <= 1
 0 <= x179 <= 1
 0 <= x180 <= 1
 0 <= x181 <= 1
 0 <= x182 <= 1
 0 <= x183 <= 1
 0 <= x184 <= 1
 0 <= x185 <= 1
 0 <= x186 <= 1
 0 <= x187 <= 1
 0 <= x188 <= 1
 0 <= x189 <= 1
 0 <= x190 <= 1
 0 <= x191 <= 1
 0 <= x192 <= 1
 0 <= x193 <= 1
 0 <= x194 <= 1
 0 <= x195 <= 1
 0 <= x196 <= 1
 0 <= x197 <= 1
 0 <= x198 <= 1
 0 <= x199 <= 1
 0 <= x200 <= 1
 0 <= x201 <= 1
 0 <= x202 <= 1
 0 <= x203 <= 1
 0 <= x204 <= 1
 0 <= x205 <= 1
 0 <= x206 <= 1
 0 <= x207 <= 1
 0 <= x208 <= 1
 0 <= x209 <= 1
 0 <= x210 <= 1
 0 <= x211 <= 1
 0 <= x212 <= 1
 0 <= x213 <= 1
 0 <= x214 <= 1
 0 <= x215 <= 1
 0 <= x216 <= 1
 0 <= x217 <= 1
 0 <= x218 <= 1
 0 <= x219 <= 1
 0 <= x220 <= 1
 0 <= x221 <= 1
 0 <= x222 <= 1
 0 <= x223 <= 1
 0 <= x224 <= 1
 0 <= x225 <= 1
 0 <= x226 <= 1
 0 <= x227 <= 1
 0 <= x228 <= 1
 0 <= x229 <= 1
 0 <= x230 <= 1
 0 <= x231 <= 1
 0 <= x232 <= 1
 0 <= x233 <= 1
 0 <= x234 <= 1
 0 <= x235 <= 1
 0 <= x236 <= 1
 0 <= x237 <= 1
 0 <= x238 <= 1
 0 <= x239 <= 1
 0 <= x240 <= 1
 0 <= x241 <= 1
 0 <= x242 <= 1
 0 <= x243 <= 1
 0 <= x244 <= 1
 0 <= x245 <= 1
 0 <= x246 <= 1
 0 <= x247 <= 1
 0 <= x248 <= 1
 0 <= x249 <= 1
 0 <= x250 <= 1
 0 <= x251 <= 1
 0 <= x252 <= 1
 0 <= x253 <= 1
 0 <= x254 <= 1
 0 <= x255 <= 1
 0 <= x256 <= 1
 0 <= x257 <= 1
 0 <= x258 <= 1
 0 <= x259 <= 1
 0 <= x260 <= 1
 0 <= x261 <= 1
 0 <= x262 <= 1
 0 <= x263 <= 1
 0 <= x264 <= 1
 0 <= x265 <= 1
 0 <= x266 <= 1
 0 <= x267 <= 1
 0 <= x268 <= 1
 0 <= x269 <= 1
 0 <= x270 <= 1
 0 <= x271 <= 1
 0 <= x272 <= 1
 0 <= x273 <= 1
 0 <= x274 <= 1
 0 <= x275 <= 1
 0 <= x276 <= 1
 0 <= x277 <= 1
 0 <= x278 <= 1
 0 <= x279 <= 1
 0 <= x280 <= 1
 0 <= x281 <= 1
 0 <= x282 <= 1
 0 <= x283 <= 1
 0 <= x284 <= 1
 0 <= x285 <= 1
 0 <= x286 <= 1
 0 <= x287 <= 1
 0 <= x288 <= 1
 0 <= x289 <= 1
 0 <= x290 <= 1
 0 <= x291 <= 1
 0 <= x292 <= 1
 0 <= x293 <= 1
 0 <= x294 <= 1
 0 <= x295 <= 1
 0 <= x296 <= 1
 0 <= x297 <= 1
 0 <= x298 <= 1
 0 <= x299 <= 1
 0 <= x300 <= 1
 0 <= x301 <= 1
 0 <= x302 <= 1
 0 <= x303 <= 1
 0 <= x304 <= 1
 0 <= x305 <= 1
 0 <= x306 <= 1
 0 <= x307 <= 1
 0 <= x308 <= 1
 0 <= x309 <= 1
 0 <= x310 <= 1
 0 <= x311 <= 1
 0 <= x312 <= 1
 0 <= x313 <= 1
 0 <= x314 <= 1
 0 <= x315 <= 1
 0 <= x316 <= 1
 0 <= x317 <= 1
 0 <= x318 <= 1
 0 <= x319 <= 1
 0 <= x320 <= 1
 0 <= x321 <= 1
 0 <= x322 <= 1
 0 <= x323 <= 1
 0 <= x324 <= 1
 0 <= x325 <= 1
 0 <= x326 <= 1
 0 <= x327 <= 1
 0 <= x328 <= 1
 0 <= x329 <= 1
 0 <= x330 <= 1
 0 <= x331 <= 1
 0 <= x332 <= 1
 0 <= x333 <= 1
 0 <= x334 <= 1
 0 <= x335 <= 1
 0 <= x336 <= 1
 0 <= x337 <= 1
 0 <= x338 <= 1
 0 <= x339 <= 1
 0 <= x340 <= 1
 0 <= x341 <= 1
 0 <= x342 <= 1
 0 <= x343 <= 1
 0 <= x344 <= 1
 0 <= x345 <= 1
 0 <= x346 <= 1
 0 <= x347 <= 1
 0 <= x348 <= 1
 0 <= x349 <= 1
 0 <= x350 <= 1
 0 <= x351 <= 1
 0 <= x352 <= 1
 0 <= x353 <= 1
 0 <= x354 <= 1
 0 <= x355 <= 1
 0 <= x356 <= 1
 0 <= x357 <= 1
 0 <= x358 <= 1
 0 <= x359 <= 1
 0 <= x360 <= 1
Binaries
 x301  x302  x303  x304  x305  x306  x307  x308  x309  x310  x311  x312  x313 
 x314  x315  x316  x317  x318  x319  x320  x321  x322  x323  x324  x325  x326 
 x327  x328  x329  x330  x331  x332  x333  x334  x335  x336  x337  x338  x339 
 x340  x341  x342  x343  x344  x345  x346  x347  x348  x349  x350  x351  x352 
 x353  x354  x355  x356  x357  x358  x359  x360 
End
